800
136834.0 82924.4
78482.0 139429.5
62788.0 147165.4
15035.0 159292.0
5846.0 159893.2
1403.0 159993.8
1369.0 159994.1
1178.0 159995.7
1137.0 159996.0
1098.0 159996.2
1069.0 159996.4
1008.0 159996.8
1003.0 159996.9
973.0 159997.0
925.0 159997.3
922.0 159997.3
920.0 159997.4
915.0 159997.4
912.0 159997.4
907.0 159997.4
896.0 159997.5
895.0 159997.5
888.0 159997.5
886.0 159997.5
876.0 159997.6
870.0 159997.6
866.0 159997.7
865.0 159997.7
861.0 159997.7
860.0 159997.7
856.0 159997.7
849.0 159997.7
841.0 159997.8
836.0 159997.8
834.0 159997.8
833.0 159997.8
830.0 159997.8
822.0 159997.9
821.0 159997.9
811.0 159997.9
800.0 159998.0
790.0 159998.0
788.0 159998.1
784.0 159998.1
780.0 159998.1
777.0 159998.1
771.0 159998.1
766.0 159998.2
758.0 159998.2
752.0 159998.2
749.0 159998.2
743.0 159998.3
735.0 159998.3
732.0 159998.3
725.0 159998.4
722.0 159998.4
721.0 159998.4
716.0 159998.4
705.0 159998.4
704.0 159998.5
703.0 159998.5
700.0 159998.5
692.0 159998.5
687.0 159998.5
680.0 159998.6
676.0 159998.6
667.0 159998.6
663.0 159998.6
656.0 159998.7
653.0 159998.7
646.0 159998.7
645.0 159998.7
642.0 159998.7
638.0 159998.7
635.0 159998.7
634.0 159998.7
621.0 159998.8
614.0 159998.8
605.0 159998.9
601.0 159998.9
596.0 159998.9
590.0 159998.9
587.0 159998.9
584.0 159998.9
577.0 159999.0
571.0 159999.0
566.0 159999.0
562.0 159999.0
558.0 159999.0
550.0 159999.1
546.0 159999.1
545.0 159999.1
537.0 159999.1
531.0 159999.1
528.0 159999.1
524.0 159999.1
519.0 159999.2
514.0 159999.2
512.0 159999.2
506.0 159999.2
498.0 159999.2
495.0 159999.2
487.0 159999.3
481.0 159999.3
476.0 159999.3
471.0 159999.3
468.0 159999.3
466.0 159999.3
464.0 159999.3
456.0 159999.4
447.0 159999.4
442.0 159999.4
439.0 159999.4
438.0 159999.4
426.0 159999.4
424.0 159999.4
415.0 159999.5
413.0 159999.5
412.0 159999.5
410.0 159999.5
409.0 159999.5
407.0 159999.5
389.0 159999.5
386.0 159999.5
379.0 159999.6
376.0 159999.6
372.0 159999.6
371.0 159999.6
357.0 159999.6
351.0 159999.6
347.0 159999.6
345.0 159999.6
339.0 159999.6
335.0 159999.6
330.0 159999.7
323.0 159999.7
316.0 159999.7
315.0 159999.7
312.0 159999.7
307.0 159999.7
306.0 159999.7
300.0 159999.7
298.0 159999.7
290.0 159999.7
283.0 159999.7
273.0 159999.8
266.0 159999.8
265.0 159999.8
260.0 159999.8
252.0 159999.8
251.0 159999.8
250.0 159999.8
240.0 159999.8
237.0 159999.8
235.0 159999.8
226.0 159999.8
221.0 159999.8
215.0 159999.9
207.0 159999.9
202.0 159999.9
195.0 159999.9
193.0 159999.9
188.0 159999.9
180.0 159999.9
176.0 159999.9
173.0 159999.9
171.0 159999.9
162.0 159999.9
158.0 159999.9
157.0 159999.9
146.0 159999.9
145.0 159999.9
139.0 159999.9
134.0 159999.9
130.0 159999.9
126.0 160000.0
124.0 160000.0
122.0 160000.0
121.0 160000.0
105.0 160000.0
99.0 160000.0
91.0 160000.0
89.0 160000.0
81.0 160000.0
77.0 160000.0
71.0 160000.0
65.0 160000.0
62.0 160000.0
58.0 160000.0
50.0 160000.0
45.0 160000.0
41.0 160000.0
36.0 160000.0
32.0 160000.0
25.0 160000.0
20.0 160000.0
15.0 160000.0
14.0 160000.0
7.0 160000.0
5.0 160000.0
-7.0 160000.0
-16.0 160000.0
-23.0 160000.0
-26.0 160000.0
-27.0 160000.0
-29.0 160000.0
-38.0 160000.0
-42.0 160000.0
-47.0 160000.0
-52.0 160000.0
-54.0 160000.0
-56.0 160000.0
-62.0 160000.0
-71.0 160000.0
-74.0 160000.0
-82.0 160000.0
-84.0 160000.0
-85.0 160000.0
-90.0 160000.0
-95.0 160000.0
-102.0 160000.0
-105.0 160000.0
-111.0 160000.0
-116.0 160000.0
-122.0 160000.0
-127.0 159999.9
-133.0 159999.9
-136.0 159999.9
-145.0 159999.9
-148.0 159999.9
-153.0 159999.9
-157.0 159999.9
-164.0 159999.9
-172.0 159999.9
-174.0 159999.9
-179.0 159999.9
-185.0 159999.9
-187.0 159999.9
-196.0 159999.9
-199.0 159999.9
-204.0 159999.9
-209.0 159999.9
-212.0 159999.9
-219.0 159999.9
-221.0 159999.8
-230.0 159999.8
-233.0 159999.8
-245.0 159999.8
-247.0 159999.8
-248.0 159999.8
-256.0 159999.8
-260.0 159999.8
-263.0 159999.8
-267.0 159999.8
-274.0 159999.8
-276.0 159999.8
-280.0 159999.8
-285.0 159999.7
-290.0 159999.7
-299.0 159999.7
-304.0 159999.7
-305.0 159999.7
-310.0 159999.7
-316.0 159999.7
-322.0 159999.7
-328.0 159999.7
-335.0 159999.6
-336.0 159999.6
-340.0 159999.6
-347.0 159999.6
-354.0 159999.6
-355.0 159999.6
-362.0 159999.6
-367.0 159999.6
-370.0 159999.6
-379.0 159999.6
-384.0 159999.5
-385.0 159999.5
-398.0 159999.5
-400.0 159999.5
-406.0 159999.5
-414.0 159999.5
-419.0 159999.5
-420.0 159999.4
-421.0 159999.4
-426.0 159999.4
-446.0 159999.4
-447.0 159999.4
-448.0 159999.4
-449.0 159999.4
-450.0 159999.4
-455.0 159999.4
-473.0 159999.3
-481.0 159999.3
-487.0 159999.3
-488.0 159999.3
-490.0 159999.2
-491.0 159999.2
-494.0 159999.2
-495.0 159999.2
-503.0 159999.2
-509.0 159999.2
-512.0 159999.2
-522.0 159999.1
-526.0 159999.1
-527.0 159999.1
-532.0 159999.1
-535.0 159999.1
-546.0 159999.1
-551.0 159999.1
-553.0 159999.0
-557.0 159999.0
-561.0 159999.0
-568.0 159999.0
-574.0 159999.0
-578.0 159999.0
-582.0 159998.9
-589.0 159998.9
-595.0 159998.9
-597.0 159998.9
-602.0 159998.9
-609.0 159998.8
-615.0 159998.8
-616.0 159998.8
-620.0 159998.8
-633.0 159998.7
-636.0 159998.7
-637.0 159998.7
-649.0 159998.7
-651.0 159998.7
-655.0 159998.7
-661.0 159998.6
-666.0 159998.6
-668.0 159998.6
-670.0 159998.6
-677.0 159998.6
-680.0 159998.6
-687.0 159998.5
-696.0 159998.5
-697.0 159998.5
-702.0 159998.5
-716.0 159998.4
-718.0 159998.4
-720.0 159998.4
-722.0 159998.4
-729.0 159998.3
-732.0 159998.3
-737.0 159998.3
-740.0 159998.3
-746.0 159998.3
-753.0 159998.2
-758.0 159998.2
-760.0 159998.2
-768.0 159998.2
-773.0 159998.1
-781.0 159998.1
-784.0 159998.1
-785.0 159998.1
-793.0 159998.0
-798.0 159998.0
-804.0 159998.0
-809.0 159998.0
-810.0 159997.9
-816.0 159997.9
-820.0 159997.9
-836.0 159997.8
-841.0 159997.8
-844.0 159997.8
-853.0 159997.7
-854.0 159997.7
-859.0 159997.7
-860.0 159997.7
-861.0 159997.7
-874.0 159997.6
-875.0 159997.6
-878.0 159997.6
-880.0 159997.6
-897.0 159997.5
-903.0 159997.5
-904.0 159997.4
-915.0 159997.4
-916.0 159997.4
-918.0 159997.4
-919.0 159997.4
-927.0 159997.3
-930.0 159997.3
-934.0 159997.3
-940.0 159997.2
-941.0 159997.2
-946.0 159997.2
-956.0 159997.1
-963.0 159997.1
-974.0 159997.0
-1452.0 159993.4
-1803.0 159989.8
-2989.0 159972.1
-18915.0 158878.0
-20837.0 158637.4
-51536.0 151472.9
-100758.0 124289.3
-114271.0 -111991.7
-74251.0 -141727.9
-18569.0 -158918.8
-6150.0 -159881.8
-4521.0 -159936.1
-1092.0 -159996.3
-996.0 -159996.9
-983.0 -159997.0
-966.0 -159997.1
-965.0 -159997.1
-962.0 -159997.1
-943.0 -159997.2
-940.0 -159997.2
-936.0 -159997.3
-935.0 -159997.3
-934.0 -159997.3
-915.0 -159997.4
-911.0 -159997.4
-908.0 -159997.4
-902.0 -159997.5
-897.0 -159997.5
-893.0 -159997.5
-888.0 -159997.5
-886.0 -159997.5
-876.0 -159997.6
-875.0 -159997.6
-872.0 -159997.6
-865.0 -159997.7
-861.0 -159997.7
-855.0 -159997.7
-850.0 -159997.7
-845.0 -159997.8
-841.0 -159997.8
-836.0 -159997.8
-826.0 -159997.9
-822.0 -159997.9
-819.0 -159997.9
-811.0 -159997.9
-808.0 -159998.0
-803.0 -159998.0
-797.0 -159998.0
-794.0 -159998.0
-787.0 -159998.1
-782.0 -159998.1
-780.0 -159998.1
-771.0 -159998.1
-766.0 -159998.2
-760.0 -159998.2
-757.0 -159998.2
-756.0 -159998.2
-749.0 -159998.2
-744.0 -159998.3
-743.0 -159998.3
-740.0 -159998.3
-729.0 -159998.3
-727.0 -159998.3
-718.0 -159998.4
-717.0 -159998.4
-716.0 -159998.4
-708.0 -159998.4
-703.0 -159998.5
-690.0 -159998.5
-687.0 -159998.5
-683.0 -159998.5
-676.0 -159998.6
-670.0 -159998.6
-665.0 -159998.6
-663.0 -159998.6
-656.0 -159998.7
-652.0 -159998.7
-648.0 -159998.7
-643.0 -159998.7
-635.0 -159998.7
-633.0 -159998.7
-632.0 -159998.8
-629.0 -159998.8
-619.0 -159998.8
-616.0 -159998.8
-608.0 -159998.8
-605.0 -159998.9
-597.0 -159998.9
-590.0 -159998.9
-588.0 -159998.9
-582.0 -159998.9
-576.0 -159999.0
-570.0 -159999.0
-567.0 -159999.0
-565.0 -159999.0
-555.0 -159999.0
-551.0 -159999.1
-547.0 -159999.1
-546.0 -159999.1
-537.0 -159999.1
-533.0 -159999.1
-530.0 -159999.1
-527.0 -159999.1
-526.0 -159999.1
-517.0 -159999.2
-509.0 -159999.2
-501.0 -159999.2
-496.0 -159999.2
-495.0 -159999.2
-493.0 -159999.2
-489.0 -159999.3
-484.0 -159999.3
-472.0 -159999.3
-466.0 -159999.3
-460.0 -159999.3
-459.0 -159999.3
-457.0 -159999.3
-452.0 -159999.4
-443.0 -159999.4
-435.0 -159999.4
-431.0 -159999.4
-425.0 -159999.4
-420.0 -159999.4
-415.0 -159999.5
-411.0 -159999.5
-408.0 -159999.5
-403.0 -159999.5
-402.0 -159999.5
-396.0 -159999.5
-392.0 -159999.5
-385.0 -159999.5
-377.0 -159999.6
-372.0 -159999.6
-369.0 -159999.6
-368.0 -159999.6
-362.0 -159999.6
-352.0 -159999.6
-345.0 -159999.6
-343.0 -159999.6
-339.0 -159999.6
-331.0 -159999.7
-329.0 -159999.7
-320.0 -159999.7
-316.0 -159999.7
-313.0 -159999.7
-306.0 -159999.7
-304.0 -159999.7
-299.0 -159999.7
-294.0 -159999.7
-287.0 -159999.7
-283.0 -159999.7
-280.0 -159999.8
-270.0 -159999.8
-266.0 -159999.8
-264.0 -159999.8
-255.0 -159999.8
-253.0 -159999.8
-252.0 -159999.8
-249.0 -159999.8
-242.0 -159999.8
-235.0 -159999.8
-228.0 -159999.8
-227.0 -159999.8
-221.0 -159999.8
-216.0 -159999.9
-211.0 -159999.9
-202.0 -159999.9
-195.0 -159999.9
-193.0 -159999.9
-190.0 -159999.9
-180.0 -159999.9
-175.0 -159999.9
-174.0 -159999.9
-169.0 -159999.9
-165.0 -159999.9
-163.0 -159999.9
-157.0 -159999.9
-148.0 -159999.9
-143.0 -159999.9
-137.0 -159999.9
-136.0 -159999.9
-128.0 -159999.9
-127.0 -159999.9
-120.0 -160000.0
-112.0 -160000.0
-108.0 -160000.0
-101.0 -160000.0
-98.0 -160000.0
-92.0 -160000.0
-90.0 -160000.0
-86.0 -160000.0
-79.0 -160000.0
-77.0 -160000.0
-76.0 -160000.0
-68.0 -160000.0
-62.0 -160000.0
-58.0 -160000.0
-54.0 -160000.0
-53.0 -160000.0
-42.0 -160000.0
-41.0 -160000.0
-39.0 -160000.0
-37.0 -160000.0
-25.0 -160000.0
-18.0 -160000.0
-17.0 -160000.0
-6.0 -160000.0
4.0 -160000.0
6.0 -160000.0
12.0 -160000.0
20.0 -160000.0
27.0 -160000.0
29.0 -160000.0
30.0 -160000.0
35.0 -160000.0
42.0 -160000.0
49.0 -160000.0
57.0 -160000.0
60.0 -160000.0
62.0 -160000.0
67.0 -160000.0
76.0 -160000.0
84.0 -160000.0
85.0 -160000.0
95.0 -160000.0
98.0 -160000.0
100.0 -160000.0
103.0 -160000.0
105.0 -160000.0
112.0 -160000.0
119.0 -160000.0
126.0 -160000.0
127.0 -159999.9
131.0 -159999.9
142.0 -159999.9
145.0 -159999.9
152.0 -159999.9
159.0 -159999.9
161.0 -159999.9
163.0 -159999.9
169.0 -159999.9
178.0 -159999.9
180.0 -159999.9
181.0 -159999.9
185.0 -159999.9
190.0 -159999.9
196.0 -159999.9
201.0 -159999.9
207.0 -159999.9
214.0 -159999.9
218.0 -159999.9
220.0 -159999.8
232.0 -159999.8
236.0 -159999.8
237.0 -159999.8
245.0 -159999.8
251.0 -159999.8
252.0 -159999.8
259.0 -159999.8
261.0 -159999.8
266.0 -159999.8
272.0 -159999.8
276.0 -159999.8
282.0 -159999.8
291.0 -159999.7
295.0 -159999.7
298.0 -159999.7
302.0 -159999.7
307.0 -159999.7
315.0 -159999.7
318.0 -159999.7
322.0 -159999.7
335.0 -159999.6
337.0 -159999.6
339.0 -159999.6
346.0 -159999.6
350.0 -159999.6
356.0 -159999.6
357.0 -159999.6
365.0 -159999.6
367.0 -159999.6
372.0 -159999.6
377.0 -159999.6
382.0 -159999.5
391.0 -159999.5
397.0 -159999.5
398.0 -159999.5
402.0 -159999.5
412.0 -159999.5
413.0 -159999.5
415.0 -159999.5
427.0 -159999.4
429.0 -159999.4
434.0 -159999.4
441.0 -159999.4
444.0 -159999.4
451.0 -159999.4
454.0 -159999.4
459.0 -159999.3
461.0 -159999.3
465.0 -159999.3
473.0 -159999.3
480.0 -159999.3
481.0 -159999.3
485.0 -159999.3
492.0 -159999.2
501.0 -159999.2
508.0 -159999.2
509.0 -159999.2
512.0 -159999.2
521.0 -159999.2
527.0 -159999.1
530.0 -159999.1
536.0 -159999.1
538.0 -159999.1
547.0 -159999.1
551.0 -159999.1
554.0 -159999.0
562.0 -159999.0
563.0 -159999.0
574.0 -159999.0
575.0 -159999.0
583.0 -159998.9
584.0 -159998.9
587.0 -159998.9
594.0 -159998.9
596.0 -159998.9
602.0 -159998.9
610.0 -159998.8
617.0 -159998.8
620.0 -159998.8
625.0 -159998.8
627.0 -159998.8
631.0 -159998.8
635.0 -159998.7
644.0 -159998.7
652.0 -159998.7
655.0 -159998.7
656.0 -159998.7
663.0 -159998.6
666.0 -159998.6
673.0 -159998.6
684.0 -159998.5
688.0 -159998.5
689.0 -159998.5
691.0 -159998.5
700.0 -159998.5
704.0 -159998.5
711.0 -159998.4
716.0 -159998.4
719.0 -159998.4
720.0 -159998.4
726.0 -159998.4
733.0 -159998.3
738.0 -159998.3
740.0 -159998.3
749.0 -159998.2
754.0 -159998.2
758.0 -159998.2
761.0 -159998.2
766.0 -159998.2
771.0 -159998.1
778.0 -159998.1
792.0 -159998.0
794.0 -159998.0
799.0 -159998.0
804.0 -159998.0
808.0 -159998.0
809.0 -159998.0
813.0 -159997.9
817.0 -159997.9
825.0 -159997.9
830.0 -159997.8
841.0 -159997.8
842.0 -159997.8
844.0 -159997.8
850.0 -159997.7
855.0 -159997.7
860.0 -159997.7
863.0 -159997.7
868.0 -159997.6
873.0 -159997.6
880.0 -159997.6
881.0 -159997.6
887.0 -159997.5
890.0 -159997.5
899.0 -159997.5
900.0 -159997.5
909.0 -159997.4
910.0 -159997.4
917.0 -159997.4
934.0 -159997.3
935.0 -159997.3
939.0 -159997.2
948.0 -159997.2
1094.0 -159996.3
1269.0 -159995.0
1507.0 -159992.9
1906.0 -159988.6
4630.0 -159933.0
10748.0 -159638.6
12459.0 -159514.2
12481.0 -159512.5
12958.0 -159474.4
36065.0 -155882.4
75045.0 -141309.1
118538.0 -107465.1
